JulietBench/Juliet_Based_Patch_Bench/FFmpeg/CWE-189-Numeric-Errors/CVE_2014_9604_3881606240953b9275a247a1c98a567f3c44890f/solverrestore_median_Snippet_patch1.smt2
; benchmark generated from python API
(set-info :status unknown)
(declare-fun R () (_ BitVec 32))
(declare-fun rsi () (_ BitVec 64))
(declare-fun rdi () (_ BitVec 64))
(assert
 (let (($x338 (= (_ bv0 32) R)))
 (let ((?x8 ((_ extract 31 0) rsi)))
 (let ((?x6 ((_ extract 31 0) rdi)))
 (let ((?x28 (bvashr ?x6 (_ bv31 32))))
 (let ((?x29 (concat ?x28 ?x6)))
 (let ((?x33 (bvsdiv ?x29 (_ bv2 64))))
 (let ((?x34 ((_ extract 31 0) ?x33)))
 (let ((?x35 (bvnot ?x34)))
 (let ((?x38 (bvor ?x35 ?x8)))
 (let ((?x39 (bvnot ?x38)))
 (let (($x87 (= (_ bv0 32) ?x39)))
 (let ((?x586 (bvmul (_ bv4294967295 32) ?x39)))
 (let ((?x41 (bvmul (_ bv2 32) ?x6)))
 (let ((?x42 (bvashr ?x41 (_ bv31 32))))
 (let ((?x43 (concat ?x42 ?x41)))
 (let ((?x358 (bvsdiv ?x43 (_ bv2 64))))
 (let ((?x539 ((_ extract 31 0) ?x358)))
 (let ((?x536 (bvnot ?x539)))
 (let ((?x537 (bvor ?x536 ?x8)))
 (let ((?x541 (bvnot ?x537)))
 (let ((?x579 (bvadd ?x541 ?x586)))
 (let (($x464 (= (_ bv0 32) ?x579)))
 (let (($x131 (and $x464 $x87 $x338)))
 (let ((?x82 ((_ extract 7 0) rsi)))
 (let ((?x75 ((_ extract 7 0) ?x33)))
 (let ((?x76 (bvnot ?x75)))
 (let ((?x77 (bvor ?x76 ?x82)))
 (let ((?x73 (bvnot ?x77)))
 (let ((?x74 (bvmul (_ bv50 8) ?x73)))
 (let ((?x69 (bvadd (_ bv255 8) ?x74)))
 (let ((?x24 (concat (_ bv0 24) ?x69)))
 (let (($x507 (= R ?x24)))
 (let (($x31722 (and (distinct (_ bv0 32) ?x579) true)))
 (let (($x440 (and $x31722 $x87 $x507)))
 (let (($x435 (= (_ bv255 32) R)))
 (let (($x112 (and (distinct (_ bv0 32) ?x39) true)))
 (let (($x155 (and $x464 $x112 $x435)))
 (let (($x335 (and $x31722 $x112 $x507)))
 (let (($x437 (or $x335 $x155 $x440 $x131)))
 (let (($x569 (not $x437)))
 (let (($x578 (and (distinct R ?x24) true)))
 (let (($x613 (and $x578 $x569)))
 (let (($x267 (and $x507 $x437)))
 (let (($x574 (or $x267 $x613)))
 (not $x574))))))))))))))))))))))))))))))))))))))))))))))
(check-sat)
